benchmarks_CP/INST_49x49/40/inst49x49_40_71.dzn
S=7;
start=[|
36,	44,	-1,	-1,	-1,	39,	-1,	48,	-1,	45,	29,	25,	46,	-1,	-1,	6,	-1,	-1,	-1,	-1,	-1,	-1,	-1,	13,	-1,	-1,	12,	-1,	-1,	3,	-1,	24,	-1,	35,	43,	-1,	-1,	-1,	7,	-1,	-1,	16,	-1,	-1,	21,	-1,	-1,	-1,	38|
-1,	-1,	-1,	-1,	-1,	-1,	5,	8,	-1,	-1,	-1,	-1,	43,	-1,	-1,	-1,	-1,	-1,	-1,	29,	-1,	11,	-1,	2,	-1,	-1,	31,	22,	-1,	23,	-1,	36,	-1,	-1,	7,	34,	20,	21,	-1,	-1,	-1,	-1,	-1,	24,	16,	9,	17,	-1,	-1|
-1,	-1,	28,	-1,	31,	8,	20,	36,	24,	6,	23,	-1,	35,	26,	-1,	-1,	-1,	-1,	45,	-1,	-1,	-1,	-1,	-1,	4,	-1,	-1,	-1,	-1,	-1,	-1,	-1,	-1,	-1,	-1,	-1,	43,	-1,	-1,	-1,	1,	38,	15,	11,	-1,	-1,	13,	33,	-1|
16,	-1,	7,	3,	35,	-1,	-1,	-1,	-1,	-1,	-1,	20,	-1,	-1,	-1,	32,	43,	-1,	-1,	-1,	34,	-1,	-1,	-1,	-1,	-1,	-1,	45,	9,	18,	-1,	-1,	-1,	-1,	47,	11,	-1,	-1,	23,	-1,	26,	-1,	-1,	-1,	-1,	29,	-1,	2,	-1|
-1,	-1,	-1,	46,	24,	-1,	-1,	17,	34,	-1,	7,	-1,	-1,	3,	-1,	-1,	-1,	37,	-1,	-1,	28,	-1,	43,	-1,	36,	48,	-1,	-1,	-1,	-1,	-1,	-1,	14,	-1,	-1,	-1,	29,	-1,	-1,	-1,	-1,	27,	-1,	-1,	20,	-1,	-1,	-1,	-1|
-1,	22,	-1,	-1,	43,	-1,	-1,	-1,	21,	49,	-1,	-1,	-1,	1,	17,	46,	-1,	-1,	-1,	-1,	-1,	-1,	14,	-1,	-1,	-1,	8,	-1,	-1,	-1,	-1,	20,	31,	-1,	-1,	-1,	-1,	35,	10,	-1,	39,	-1,	-1,	6,	-1,	41,	34,	45,	-1|
-1,	42,	-1,	-1,	9,	48,	-1,	-1,	-1,	-1,	37,	14,	-1,	11,	-1,	38,	-1,	-1,	-1,	-1,	-1,	49,	-1,	-1,	-1,	-1,	-1,	-1,	12,	-1,	44,	-1,	-1,	-1,	6,	-1,	-1,	-1,	-1,	31,	24,	18,	36,	4,	-1,	-1,	43,	-1,	-1|
-1,	-1,	-1,	-1,	4,	-1,	-1,	-1,	48,	-1,	-1,	42,	27,	-1,	49,	-1,	24,	-1,	34,	11,	-1,	-1,	26,	-1,	45,	-1,	-1,	-1,	25,	17,	7,	38,	-1,	-1,	-1,	33,	31,	-1,	12,	2,	-1,	-1,	28,	-1,	-1,	35,	3,	-1,	-1|
-1,	34,	-1,	-1,	11,	-1,	28,	-1,	3,	1,	17,	-1,	-1,	31,	-1,	-1,	-1,	39,	47,	-1,	21,	-1,	-1,	8,	35,	42,	-1,	-1,	37,	16,	-1,	-1,	26,	-1,	40,	-1,	13,	15,	38,	-1,	-1,	19,	2,	-1,	-1,	-1,	33,	-1,	-1|
-1,	25,	-1,	-1,	29,	-1,	3,	45,	-1,	-1,	-1,	47,	14,	19,	-1,	43,	-1,	-1,	-1,	-1,	13,	31,	40,	-1,	33,	-1,	-1,	-1,	-1,	-1,	-1,	-1,	20,	-1,	-1,	7,	21,	23,	-1,	46,	-1,	-1,	16,	-1,	49,	-1,	42,	-1,	-1|
-1,	-1,	-1,	-1,	-1,	17,	1,	-1,	-1,	10,	-1,	-1,	-1,	44,	22,	36,	40,	-1,	-1,	-1,	29,	-1,	-1,	-1,	-1,	7,	-1,	-1,	-1,	-1,	-1,	49,	-1,	-1,	-1,	26,	-1,	16,	-1,	41,	-1,	8,	13,	-1,	34,	-1,	-1,	-1,	-1|
-1,	-1,	24,	-1,	-1,	-1,	39,	-1,	38,	-1,	33,	-1,	-1,	-1,	-1,	-1,	20,	-1,	-1,	27,	-1,	19,	-1,	-1,	-1,	-1,	-1,	12,	32,	2,	-1,	-1,	41,	-1,	-1,	-1,	22,	25,	-1,	28,	49,	45,	1,	46,	-1,	-1,	-1,	-1,	-1|
-1,	33,	-1,	-1,	-1,	-1,	-1,	2,	-1,	-1,	-1,	43,	16,	-1,	31,	-1,	-1,	1,	42,	-1,	32,	-1,	-1,	-1,	41,	28,	-1,	6,	27,	-1,	3,	46,	-1,	-1,	34,	40,	-1,	-1,	-1,	-1,	-1,	37,	22,	15,	-1,	19,	23,	20,	17|
-1,	49,	45,	-1,	-1,	12,	-1,	-1,	26,	-1,	-1,	23,	-1,	9,	-1,	-1,	38,	28,	-1,	7,	33,	-1,	25,	17,	47,	-1,	3,	32,	13,	-1,	-1,	-1,	19,	-1,	10,	-1,	18,	-1,	20,	48,	-1,	-1,	-1,	41,	-1,	-1,	-1,	-1,	27|
-1,	-1,	29,	-1,	-1,	-1,	31,	1,	-1,	3,	-1,	45,	-1,	32,	8,	-1,	19,	33,	6,	-1,	-1,	-1,	-1,	22,	18,	36,	17,	-1,	-1,	-1,	49,	9,	-1,	2,	35,	28,	-1,	-1,	-1,	-1,	-1,	-1,	23,	-1,	41,	-1,	15,	-1,	37|
-1,	40,	46,	-1,	32,	-1,	21,	13,	-1,	2,	-1,	22,	31,	14,	44,	-1,	-1,	-1,	49,	35,	-1,	-1,	4,	-1,	29,	-1,	-1,	23,	45,	47,	-1,	7,	18,	-1,	3,	5,	-1,	-1,	6,	-1,	-1,	24,	-1,	19,	43,	26,	-1,	-1,	34|
-1,	18,	-1,	-1,	33,	-1,	42,	-1,	16,	-1,	-1,	19,	-1,	-1,	-1,	-1,	-1,	45,	-1,	-1,	20,	47,	-1,	-1,	-1,	-1,	49,	-1,	-1,	-1,	8,	37,	-1,	-1,	-1,	10,	11,	-1,	-1,	-1,	-1,	-1,	-1,	25,	5,	48,	12,	38,	-1|
-1,	-1,	-1,	20,	45,	2,	-1,	-1,	-1,	7,	-1,	15,	21,	-1,	-1,	1,	-1,	-1,	-1,	-1,	40,	-1,	3,	-1,	-1,	-1,	-1,	-1,	16,	-1,	-1,	-1,	27,	19,	24,	-1,	-1,	-1,	14,	-1,	-1,	-1,	-1,	-1,	-1,	-1,	-1,	46,	-1|
22,	36,	-1,	-1,	-1,	-1,	24,	10,	-1,	27,	48,	-1,	38,	47,	28,	-1,	-1,	26,	7,	-1,	11,	-1,	-1,	21,	-1,	9,	14,	19,	-1,	-1,	4,	-1,	-1,	40,	25,	-1,	-1,	37,	-1,	35,	41,	-1,	29,	-1,	-1,	-1,	-1,	16,	-1|
3,	-1,	9,	-1,	-1,	-1,	38,	-1,	20,	-1,	-1,	-1,	-1,	-1,	47,	-1,	42,	46,	48,	-1,	-1,	-1,	-1,	-1,	6,	-1,	-1,	-1,	-1,	43,	34,	11,	-1,	-1,	23,	-1,	-1,	-1,	-1,	32,	30,	-1,	-1,	33,	-1,	-1,	-1,	22,	18|
-1,	-1,	19,	-1,	-1,	-1,	-1,	-1,	-1,	25,	34,	-1,	17,	6,	-1,	18,	-1,	-1,	9,	-1,	-1,	-1,	-1,	-1,	24,	-1,	46,	-1,	-1,	20,	-1,	-1,	-1,	-1,	-1,	-1,	-1,	47,	-1,	39,	48,	-1,	-1,	-1,	-1,	14,	-1,	-1,	-1|
20,	32,	33,	26,	-1,	36,	40,	25,	-1,	19,	-1,	6,	8,	-1,	37,	-1,	-1,	-1,	-1,	-1,	-1,	9,	-1,	-1,	-1,	-1,	-1,	15,	-1,	44,	38,	-1,	-1,	-1,	1,	-1,	30,	11,	-1,	-1,	22,	12,	-1,	-1,	31,	42,	-1,	-1,	-1|
44,	19,	-1,	-1,	-1,	-1,	-1,	-1,	22,	-1,	-1,	49,	-1,	-1,	-1,	-1,	33,	-1,	-1,	-1,	-1,	-1,	6,	-1,	-1,	38,	-1,	43,	-1,	-1,	-1,	-1,	3,	7,	20,	41,	45,	39,	42,	21,	-1,	-1,	-1,	-1,	-1,	25,	1,	-1,	-1|
13,	30,	-1,	-1,	18,	5,	43,	-1,	-1,	-1,	45,	44,	-1,	-1,	-1,	-1,	-1,	-1,	17,	25,	1,	-1,	-1,	16,	-1,	46,	-1,	27,	-1,	-1,	40,	-1,	32,	-1,	33,	-1,	35,	34,	37,	-1,	-1,	-1,	-1,	-1,	6,	-1,	36,	-1,	26|
-1,	-1,	-1,	-1,	15,	-1,	46,	43,	5,	-1,	-1,	-1,	41,	28,	-1,	48,	-1,	-1,	-1,	-1,	-1,	-1,	-1,	18,	14,	11,	-1,	20,	-1,	19,	-1,	-1,	-1,	-1,	-1,	-1,	-1,	3,	-1,	-1,	-1,	-1,	27,	-1,	29,	-1,	-1,	-1,	30|
-1,	31,	-1,	-1,	-1,	-1,	-1,	-1,	-1,	-1,	2,	-1,	-1,	-1,	45,	-1,	-1,	9,	41,	-1,	49,	-1,	-1,	24,	-1,	-1,	-1,	-1,	-1,	12,	-1,	16,	-1,	48,	27,	36,	-1,	-1,	28,	23,	-1,	-1,	8,	-1,	-1,	38,	-1,	-1,	-1|
49,	-1,	-1,	-1,	27,	47,	8,	34,	-1,	-1,	-1,	46,	-1,	-1,	29,	-1,	-1,	-1,	-1,	-1,	22,	-1,	-1,	41,	-1,	-1,	-1,	-1,	-1,	-1,	-1,	-1,	-1,	9,	-1,	17,	1,	-1,	26,	-1,	31,	6,	-1,	13,	-1,	-1,	-1,	28,	23|
24,	-1,	1,	-1,	37,	-1,	16,	9,	-1,	17,	-1,	-1,	23,	-1,	40,	-1,	-1,	-1,	-1,	-1,	46,	-1,	30,	-1,	-1,	49,	48,	44,	-1,	-1,	29,	-1,	5,	31,	-1,	-1,	-1,	-1,	43,	-1,	-1,	-1,	-1,	12,	-1,	3,	-1,	21,	-1|
-1,	3,	8,	15,	-1,	6,	-1,	26,	27,	-1,	49,	-1,	29,	-1,	-1,	-1,	11,	-1,	10,	-1,	36,	-1,	-1,	35,	21,	-1,	-1,	-1,	-1,	-1,	5,	-1,	-1,	-1,	37,	-1,	41,	-1,	-1,	-1,	-1,	20,	-1,	-1,	-1,	34,	-1,	32,	-1|
32,	-1,	-1,	-1,	-1,	35,	48,	-1,	46,	22,	42,	8,	-1,	-1,	-1,	-1,	-1,	-1,	-1,	-1,	-1,	-1,	-1,	-1,	-1,	-1,	18,	-1,	-1,	38,	-1,	-1,	-1,	-1,	-1,	-1,	36,	-1,	-1,	43,	-1,	1,	20,	-1,	-1,	-1,	-1,	-1,	-1|
33,	-1,	-1,	-1,	-1,	-1,	-1,	-1,	44,	-1,	-1,	-1,	3,	36,	-1,	-1,	-1,	47,	-1,	-1,	18,	26,	-1,	-1,	-1,	-1,	-1,	9,	-1,	13,	-1,	40,	-1,	4,	-1,	38,	37,	-1,	-1,	-1,	-1,	-1,	30,	-1,	-1,	-1,	-1,	-1,	-1|
18,	-1,	36,	-1,	-1,	44,	13,	-1,	-1,	-1,	12,	1,	10,	-1,	-1,	3,	-1,	-1,	-1,	-1,	48,	-1,	47,	-1,	-1,	2,	5,	40,	-1,	15,	-1,	27,	-1,	-1,	-1,	-1,	-1,	24,	-1,	-1,	-1,	9,	-1,	-1,	-1,	46,	25,	14,	-1|
41,	-1,	-1,	-1,	-1,	24,	14,	6,	30,	-1,	-1,	-1,	-1,	-1,	20,	-1,	-1,	27,	40,	-1,	-1,	33,	12,	-1,	44,	-1,	-1,	49,	36,	22,	32,	1,	-1,	-1,	-1,	-1,	-1,	-1,	-1,	-1,	-1,	10,	-1,	8,	38,	-1,	-1,	5,	-1|
42,	12,	-1,	-1,	-1,	-1,	4,	31,	-1,	-1,	-1,	-1,	-1,	-1,	-1,	5,	-1,	49,	-1,	-1,	24,	-1,	32,	1,	34,	41,	11,	-1,	46,	-1,	17,	-1,	9,	-1,	-1,	-1,	15,	48,	-1,	26,	-1,	2,	43,	-1,	10,	-1,	22,	35,	-1|
47,	-1,	-1,	40,	-1,	21,	-1,	-1,	-1,	-1,	-1,	-1,	2,	-1,	-1,	-1,	9,	-1,	37,	4,	-1,	-1,	13,	-1,	43,	-1,	36,	17,	-1,	-1,	16,	-1,	7,	-1,	-1,	-1,	46,	22,	-1,	18,	-1,	35,	-1,	23,	-1,	-1,	-1,	1,	-1|
-1,	1,	-1,	-1,	-1,	-1,	49,	-1,	45,	-1,	16,	17,	48,	40,	18,	-1,	-1,	-1,	38,	31,	-1,	-1,	21,	-1,	-1,	-1,	10,	34,	41,	7,	-1,	-1,	-1,	46,	-1,	-1,	8,	13,	-1,	30,	-1,	-1,	-1,	-1,	47,	-1,	32,	-1,	-1|
-1,	-1,	48,	-1,	-1,	-1,	17,	-1,	-1,	-1,	-1,	41,	19,	37,	46,	7,	-1,	-1,	36,	-1,	23,	30,	-1,	-1,	5,	-1,	28,	29,	42,	-1,	6,	8,	-1,	26,	-1,	-1,	12,	-1,	15,	40,	-1,	34,	18,	45,	-1,	-1,	-1,	-1,	-1|
-1,	9,	-1,	-1,	-1,	-1,	-1,	15,	-1,	-1,	46,	11,	-1,	-1,	-1,	37,	17,	10,	29,	-1,	-1,	44,	-1,	-1,	49,	23,	-1,	-1,	-1,	-1,	-1,	32,	-1,	38,	19,	-1,	24,	-1,	-1,	-1,	-1,	41,	-1,	26,	22,	-1,	6,	-1,	-1|
-1,	6,	14,	41,	28,	-1,	-1,	-1,	-1,	-1,	-1,	31,	-1,	23,	-1,	-1,	-1,	24,	-1,	20,	47,	36,	-1,	-1,	-1,	-1,	33,	-1,	40,	-1,	37,	12,	-1,	5,	45,	18,	-1,	43,	2,	-1,	-1,	42,	-1,	38,	17,	-1,	-1,	-1,	4|
-1,	-1,	-1,	31,	8,	-1,	32,	3,	-1,	-1,	44,	7,	1,	-1,	-1,	-1,	14,	-1,	4,	40,	-1,	-1,	-1,	-1,	-1,	-1,	13,	26,	33,	-1,	-1,	-1,	-1,	-1,	-1,	-1,	-1,	-1,	5,	-1,	-1,	-1,	46,	-1,	-1,	39,	49,	-1,	-1|
-1,	46,	16,	-1,	36,	3,	12,	-1,	-1,	-1,	27,	4,	6,	22,	-1,	-1,	-1,	-1,	-1,	-1,	8,	-1,	-1,	42,	40,	-1,	-1,	11,	1,	-1,	15,	18,	-1,	-1,	44,	-1,	-1,	-1,	47,	-1,	9,	-1,	19,	10,	-1,	-1,	-1,	-1,	-1|
-1,	-1,	-1,	45,	2,	40,	-1,	-1,	10,	-1,	39,	-1,	20,	18,	33,	34,	-1,	22,	-1,	5,	-1,	35,	-1,	-1,	19,	-1,	41,	14,	-1,	24,	-1,	-1,	49,	11,	-1,	-1,	-1,	-1,	3,	17,	-1,	32,	-1,	16,	-1,	8,	28,	48,	21|
-1,	-1,	-1,	-1,	3,	18,	33,	-1,	-1,	48,	8,	12,	-1,	-1,	-1,	-1,	-1,	25,	-1,	47,	-1,	-1,	28,	-1,	-1,	6,	-1,	-1,	-1,	36,	20,	-1,	46,	-1,	-1,	45,	2,	17,	-1,	-1,	-1,	-1,	38,	7,	-1,	49,	35,	-1,	-1|
-1,	-1,	-1,	-1,	38,	-1,	-1,	-1,	-1,	47,	18,	32,	4,	33,	-1,	31,	-1,	35,	-1,	8,	-1,	-1,	49,	19,	9,	34,	-1,	-1,	7,	37,	45,	2,	-1,	-1,	21,	-1,	-1,	-1,	13,	-1,	-1,	-1,	40,	-1,	-1,	-1,	-1,	43,	-1|
-1,	39,	-1,	49,	-1,	30,	7,	22,	-1,	-1,	19,	-1,	-1,	45,	-1,	-1,	28,	-1,	-1,	38,	3,	40,	-1,	36,	42,	8,	-1,	31,	-1,	-1,	-1,	-1,	-1,	25,	-1,	-1,	-1,	4,	16,	-1,	-1,	-1,	-1,	29,	-1,	17,	21,	11,	-1|
45,	-1,	-1,	-1,	-1,	-1,	47,	-1,	36,	38,	-1,	39,	-1,	-1,	-1,	-1,	-1,	-1,	33,	6,	-1,	-1,	20,	-1,	-1,	-1,	35,	16,	5,	-1,	-1,	10,	-1,	-1,	-1,	-1,	-1,	30,	-1,	-1,	-1,	-1,	41,	-1,	44,	22,	31,	-1,	24|
-1,	13,	-1,	-1,	-1,	-1,	-1,	44,	-1,	-1,	30,	3,	-1,	10,	-1,	-1,	-1,	-1,	39,	46,	-1,	-1,	2,	38,	-1,	14,	-1,	37,	-1,	-1,	-1,	42,	-1,	15,	11,	-1,	25,	-1,	-1,	47,	-1,	-1,	-1,	-1,	-1,	-1,	45,	4,	-1|
-1,	-1,	44,	-1,	12,	-1,	36,	21,	-1,	13,	26,	2,	-1,	-1,	42,	-1,	-1,	40,	20,	49,	-1,	-1,	-1,	29,	-1,	-1,	22,	-1,	3,	-1,	-1,	34,	-1,	27,	39,	-1,	-1,	-1,	48,	-1,	-1,	-1,	-1,	14,	-1,	30,	16,	10,	33|
5,	10,	20,	-1,	17,	46,	-1,	41,	35,	31,	-1,	-1,	25,	15,	-1,	-1,	-1,	-1,	-1,	-1,	-1,	-1,	7,	-1,	1,	21,	47,	33,	8,	-1,	28,	-1,	-1,	-1,	-1,	-1,	-1,	40,	-1,	-1,	37,	26,	-1,	-1,	48,	-1,	-1,	6,	-1|];
