sudoku-ls/benchmarks_LEQ/INST_49x49/40/inst49x49_40_71.txt
7
1
-1	-1	4	30	-1	39	10	48	-1	45	29	-1	-1	2	-1	6	23	11	14	-1	-1	15	-1	13	20	1	-1	-1	-1	3	27	-1	8	35	43	-1	-1	-1	7	-1	-1	-1	-1	18	21	-1	37	-1	38
-1	-1	47	-1	-1	-1	5	-1	13	-1	-1	-1	-1	12	-1	49	35	-1	-1	29	-1	11	-1	2	-1	-1	-1	-1	-1	23	-1	36	4	37	7	-1	20	21	-1	44	-1	-1	-1	24	16	9	17	27	-1
29	14	28	27	31	8	-1	-1	24	-1	23	18	-1	-1	10	40	30	48	-1	-1	-1	-1	-1	-1	-1	-1	16	-1	-1	-1	25	21	-1	39	-1	19	43	2	-1	-1	1	-1	-1	11	-1	-1	13	-1	22
16	-1	-1	3	-1	49	-1	-1	-1	5	-1	20	15	-1	-1	-1	43	-1	19	-1	-1	17	-1	-1	-1	44	-1	45	9	-1	13	-1	38	-1	47	11	48	-1	-1	-1	26	14	-1	40	-1	29	-1	-1	-1
-1	45	2	-1	-1	-1	-1	17	34	44	-1	-1	40	-1	-1	8	47	-1	-1	22	-1	-1	-1	33	36	-1	-1	-1	-1	5	-1	-1	14	-1	42	13	29	49	-1	-1	-1	-1	35	-1	-1	23	-1	12	1
12	-1	-1	-1	-1	-1	-1	19	21	-1	-1	9	-1	1	-1	-1	27	7	-1	15	-1	-1	-1	23	-1	26	-1	38	-1	-1	-1	-1	-1	-1	-1	32	-1	-1	10	-1	-1	-1	-1	6	30	41	34	-1	-1
-1	42	-1	34	9	-1	15	-1	41	-1	-1	-1	22	-1	13	38	2	-1	25	-1	5	-1	35	-1	-1	-1	-1	-1	-1	-1	44	29	33	1	6	8	-1	-1	46	-1	-1	-1	-1	-1	-1	10	-1	-1	19
9	-1	40	16	4	-1	-1	-1	48	46	6	-1	-1	30	-1	19	-1	-1	-1	-1	-1	13	26	44	-1	-1	-1	-1	-1	-1	7	38	1	-1	-1	-1	-1	-1	-1	2	43	-1	-1	-1	-1	35	3	-1	-1
-1	-1	-1	-1	-1	-1	-1	20	-1	1	17	36	-1	31	5	10	25	-1	47	9	-1	-1	22	8	35	42	-1	48	-1	-1	-1	-1	26	-1	-1	24	13	-1	-1	27	-1	-1	-1	-1	-1	44	33	7	-1
-1	25	-1	-1	29	-1	-1	-1	-1	37	-1	47	14	-1	-1	-1	-1	2	-1	18	13	-1	40	11	-1	-1	-1	-1	-1	39	24	-1	-1	36	5	-1	21	-1	32	-1	34	-1	-1	9	-1	-1	42	8	12
-1	-1	-1	5	46	17	-1	4	15	-1	-1	-1	-1	-1	-1	36	40	-1	-1	-1	29	24	-1	-1	-1	-1	27	-1	-1	-1	30	-1	45	-1	9	-1	-1	-1	-1	-1	11	8	-1	-1	34	6	38	-1	48
31	48	24	-1	10	42	39	-1	-1	8	-1	-1	-1	-1	-1	-1	-1	3	30	-1	-1	19	-1	-1	-1	5	34	-1	-1	-1	-1	-1	-1	-1	-1	-1	-1	25	-1	28	49	-1	-1	46	26	11	-1	18	-1
26	-1	-1	-1	13	-1	30	-1	-1	-1	-1	-1	16	-1	-1	45	-1	-1	-1	-1	-1	-1	36	-1	41	-1	-1	-1	-1	-1	3	-1	-1	-1	-1	40	-1	10	-1	29	14	37	22	15	25	19	23	20	-1
2	-1	-1	-1	6	12	-1	39	-1	-1	22	23	-1	-1	-1	-1	-1	-1	46	7	-1	14	25	17	-1	-1	3	-1	-1	-1	-1	43	-1	-1	10	-1	-1	-1	20	-1	-1	-1	-1	-1	-1	-1	40	-1	27
-1	-1	-1	-1	-1	-1	31	1	11	-1	-1	-1	-1	32	-1	-1	-1	-1	-1	24	-1	-1	-1	-1	-1	-1	-1	5	-1	-1	-1	-1	-1	2	-1	-1	38	-1	-1	13	-1	-1	-1	27	41	20	15	-1	-1
-1	-1	-1	48	-1	37	21	-1	42	-1	-1	-1	31	-1	44	-1	-1	15	49	35	-1	39	-1	25	-1	-1	20	-1	-1	-1	-1	7	-1	41	-1	5	33	-1	-1	-1	27	-1	-1	19	-1	-1	11	-1	-1
-1	-1	-1	13	33	-1	-1	-1	-1	24	-1	-1	26	-1	39	-1	29	-1	3	17	-1	-1	27	-1	7	-1	-1	-1	-1	-1	8	37	-1	-1	-1	-1	-1	-1	36	34	-1	-1	-1	-1	5	-1	12	-1	-1
17	8	49	-1	45	-1	-1	-1	-1	7	9	-1	-1	-1	32	-1	41	-1	-1	34	-1	-1	-1	-1	-1	33	-1	-1	-1	30	-1	13	27	-1	24	43	-1	18	-1	-1	29	44	6	-1	-1	-1	-1	-1	-1
-1	-1	-1	-1	5	-1	-1	-1	18	27	-1	-1	38	47	28	-1	31	-1	-1	-1	11	-1	-1	-1	2	9	-1	-1	-1	-1	-1	-1	-1	40	-1	20	42	-1	45	-1	-1	-1	-1	49	-1	13	-1	-1	-1
3	-1	-1	44	-1	-1	-1	-1	-1	-1	-1	5	12	35	-1	-1	42	-1	-1	-1	-1	-1	-1	15	6	-1	26	1	29	-1	-1	11	-1	-1	-1	-1	-1	19	-1	32	30	31	39	-1	-1	21	24	-1	-1
-1	26	19	1	-1	-1	-1	-1	8	-1	34	-1	-1	-1	-1	18	13	-1	9	-1	-1	-1	-1	31	-1	-1	46	41	38	-1	12	5	10	33	32	15	-1	-1	22	-1	-1	49	-1	2	28	-1	44	-1	-1
-1	-1	33	-1	-1	-1	-1	25	-1	-1	3	-1	-1	21	37	35	34	18	-1	-1	-1	9	-1	-1	39	-1	-1	15	-1	44	38	17	13	-1	1	-1	30	11	-1	-1	-1	12	7	48	-1	42	-1	-1	-1
-1	-1	11	-1	48	9	23	18	-1	-1	-1	-1	-1	13	-1	-1	-1	5	-1	-1	-1	2	6	47	32	38	-1	-1	-1	-1	-1	-1	-1	-1	-1	-1	-1	-1	-1	21	16	-1	-1	-1	-1	25	-1	-1	-1
-1	-1	-1	-1	18	5	43	11	-1	-1	-1	44	39	-1	-1	-1	7	-1	-1	25	-1	-1	-1	16	-1	46	-1	-1	-1	-1	40	-1	-1	-1	33	-1	-1	-1	-1	20	-1	-1	9	22	-1	24	-1	41	-1
-1	2	12	-1	-1	38	46	43	-1	16	-1	37	41	-1	-1	-1	-1	-1	-1	42	6	1	-1	-1	-1	-1	-1	20	22	19	21	35	-1	34	-1	49	-1	-1	24	-1	44	-1	27	39	-1	45	47	17	-1
-1	31	-1	-1	39	4	-1	-1	-1	-1	-1	-1	-1	-1	45	-1	-1	-1	41	-1	49	-1	17	24	-1	-1	-1	13	30	12	-1	16	-1	48	-1	-1	-1	7	-1	-1	18	-1	-1	-1	-1	38	-1	44	-1
-1	35	42	-1	-1	47	8	34	-1	-1	-1	-1	30	-1	-1	-1	-1	-1	-1	21	-1	-1	-1	41	-1	-1	-1	36	39	-1	2	45	-1	-1	-1	-1	-1	-1	-1	5	-1	-1	33	13	-1	-1	-1	28	23
-1	-1	1	-1	-1	-1	16	9	47	17	-1	-1	-1	-1	40	-1	-1	-1	-1	-1	46	-1	-1	34	-1	49	-1	-1	-1	-1	29	-1	-1	-1	-1	2	-1	8	43	33	25	13	32	-1	18	-1	-1	-1	14
-1	-1	-1	-1	-1	6	-1	-1	-1	-1	49	48	-1	-1	-1	-1	-1	-1	-1	-1	-1	-1	-1	-1	21	22	-1	30	-1	-1	5	-1	-1	18	37	-1	-1	-1	40	-1	-1	-1	45	-1	-1	34	-1	32	-1
-1	7	-1	-1	-1	35	-1	-1	46	-1	-1	-1	45	-1	-1	-1	-1	-1	-1	-1	17	-1	29	-1	-1	-1	-1	39	-1	-1	33	-1	-1	3	12	-1	-1	6	31	-1	-1	-1	-1	-1	11	40	-1	37	-1
-1	27	-1	-1	-1	-1	45	7	44	-1	-1	24	-1	36	-1	-1	21	47	-1	-1	-1	26	46	-1	8	-1	-1	9	-1	13	-1	40	34	4	-1	38	-1	32	11	49	-1	-1	-1	-1	42	-1	-1	-1	2
18	-1	-1	-1	-1	-1	-1	-1	-1	34	12	-1	-1	-1	7	3	-1	-1	-1	32	-1	37	-1	45	-1	2	-1	40	35	-1	41	27	-1	6	-1	-1	-1	-1	-1	4	17	9	26	-1	33	-1	-1	-1	-1
-1	-1	-1	-1	-1	24	14	-1	-1	9	21	-1	11	-1	-1	-1	-1	-1	40	26	35	-1	-1	3	44	-1	-1	-1	36	-1	-1	1	-1	-1	-1	25	16	-1	-1	-1	23	10	-1	-1	-1	-1	18	5	-1
42	-1	39	38	-1	29	4	-1	37	14	-1	-1	-1	16	-1	5	-1	-1	-1	13	-1	7	-1	-1	34	-1	11	-1	-1	-1	17	-1	-1	-1	28	-1	15	-1	-1	-1	47	2	43	-1	10	-1	22	-1	6
47	-1	26	-1	-1	21	-1	38	-1	-1	32	-1	-1	-1	-1	29	9	-1	-1	-1	45	-1	13	-1	43	-1	-1	17	11	-1	-1	-1	7	-1	-1	-1	46	-1	-1	18	12	-1	24	23	39	-1	-1	-1	15
-1	-1	-1	-1	44	-1	49	-1	-1	-1	16	17	-1	40	-1	-1	-1	6	-1	-1	-1	-1	21	-1	-1	-1	10	-1	41	-1	39	-1	36	46	14	23	8	-1	4	30	33	-1	-1	-1	47	-1	-1	-1	-1
-1	-1	-1	39	-1	-1	-1	-1	-1	-1	-1	-1	-1	37	-1	-1	-1	-1	36	3	23	30	1	-1	5	24	-1	29	42	-1	-1	-1	-1	-1	2	-1	12	-1	15	40	-1	-1	18	-1	-1	-1	14	-1	-1
4	-1	-1	-1	42	-1	-1	15	-1	-1	-1	-1	-1	-1	27	37	-1	-1	-1	-1	-1	44	-1	7	49	23	-1	3	-1	-1	-1	32	30	38	-1	14	24	-1	-1	-1	-1	-1	-1	26	22	31	-1	40	-1
10	6	-1	-1	-1	-1	-1	-1	32	-1	-1	-1	-1	23	21	-1	48	24	-1	-1	47	-1	-1	-1	15	-1	33	8	-1	27	-1	12	-1	5	-1	-1	-1	-1	2	11	19	-1	-1	-1	-1	1	7	3	-1
-1	-1	30	31	8	-1	-1	3	-1	43	-1	7	1	34	11	9	-1	-1	4	40	-1	6	-1	-1	37	18	-1	-1	-1	-1	47	23	-1	10	-1	-1	27	-1	-1	-1	28	48	46	-1	-1	39	-1	-1	-1
-1	-1	16	-1	-1	3	12	-1	-1	-1	-1	4	6	-1	-1	13	49	-1	-1	41	8	-1	31	-1	40	17	-1	-1	-1	34	-1	-1	-1	-1	44	-1	-1	-1	47	7	-1	-1	19	-1	2	-1	-1	-1	-1
-1	-1	-1	45	2	-1	-1	12	-1	-1	-1	26	20	-1	-1	34	-1	-1	15	5	-1	35	38	4	19	-1	-1	-1	-1	24	9	25	-1	-1	-1	29	6	-1	-1	17	-1	-1	-1	-1	-1	8	28	-1	-1
-1	-1	34	37	-1	-1	-1	42	9	-1	-1	-1	24	29	-1	27	-1	25	-1	47	-1	5	-1	-1	13	-1	44	-1	-1	36	20	31	-1	-1	-1	45	-1	17	41	1	-1	22	38	7	-1	-1	-1	-1	-1
48	24	23	42	-1	-1	25	-1	-1	-1	-1	-1	4	-1	1	31	5	-1	-1	-1	-1	10	-1	-1	9	-1	-1	46	-1	37	-1	-1	29	-1	-1	-1	-1	14	-1	-1	-1	-1	-1	-1	-1	28	-1	-1	-1
1	-1	-1	49	-1	-1	7	-1	-1	23	-1	-1	37	-1	-1	-1	-1	-1	-1	-1	3	-1	-1	-1	42	-1	-1	31	18	-1	-1	-1	-1	-1	-1	9	10	4	16	-1	20	5	47	29	-1	17	-1	-1	13
-1	29	32	-1	21	-1	-1	14	-1	38	1	-1	28	-1	48	-1	-1	17	33	6	-1	23	-1	-1	3	-1	-1	-1	5	9	26	10	40	-1	4	46	-1	-1	-1	42	8	-1	41	34	44	-1	-1	25	-1
28	13	31	-1	26	-1	-1	44	-1	-1	-1	3	-1	-1	-1	21	-1	-1	-1	46	9	-1	-1	-1	-1	14	-1	37	24	49	-1	-1	-1	15	-1	-1	-1	-1	29	47	-1	33	-1	1	23	18	-1	4	8
-1	43	44	-1	12	-1	-1	-1	17	-1	-1	2	5	46	42	-1	-1	40	-1	49	-1	-1	41	-1	11	45	-1	-1	3	-1	1	-1	47	-1	-1	6	23	31	48	-1	-1	28	-1	14	-1	-1	16	-1	-1
5	-1	20	-1	-1	46	-1	41	-1	31	-1	16	25	15	24	-1	-1	-1	-1	-1	19	-1	-1	39	-1	-1	-1	33	8	14	-1	-1	-1	44	-1	-1	34	40	-1	36	37	26	42	-1	-1	-1	-1	6	-1
49 
17 30 4 20
33 33 46 4
28 46 27 22
22 9 19 31
31 41 18 19
15 19 47 4
20 5 27 9
24 23 14 4
17 38 39 13
30 29 37 41
37 6 6 31
40 24 29 15
33 12 20 26
6 23 30 24
2 42 26 45
40 23 37 18
29 14 6 15
6 3 8 7
22 10 24 27
38 38 30 43
48 8 9 21
20 48 44 19
12 15 8 34
21 25 48 28
47 37 1 12
7 48 22 4
45 3 4 14
15 36 43 23
31 35 15 3
49 20 16 1
28 34 24 25
33 31 9 6
41 46 34 39
20 31 38 7
18 45 14 30
25 35 38 10
15 49 42 45
24 15 17 48
38 21 43 49
17 49 47 9
28 32 2 18
47 32 42 10
23 28 30 40
27 17 14 7
2 41 45 14
9 22 1 13
17 22 8 42
17 46 34 38
15 31 20 8
